(set-info :smt-lib-version 2.6)
(set-logic QF_S)
(set-info :source |
Generated by: Shaoke Cui
Generated on: 2025-04-10
Application: Using String Solvers to solve string matching problems
Target solver: Z3, Z3alpha, Z3-noodler
Benchmarks for string matching problem with wildcards, which needs to determine whether two strings containing two wildcards can match.
Use re.allchar and (re.* re.allchar) to represent wildcards.
Determine whether the two strings match by judging whether the result of re.inter is re.none.
|)
(set-info :license "https://creativecommons.org/licenses/by/4.0/")
(set-info :category "crafted")
(set-info :status unknown)
(assert (= re.none (re.inter  (re.++ (str.to_re "hc") (re.* re.allchar) re.allchar (str.to_re "kfbh") re.allchar (str.to_re "ozrpzvheidyb") (re.* re.allchar) (str.to_re "eckxyacfwykrkqetjerrzuq") (re.* re.allchar) (str.to_re "dixiymswlfcli") re.allchar (str.to_re "krchnctapyhjreklcwjzg") re.allchar (str.to_re "jhmhuaqufhyeqjwdpnpukekmlswzyttkznefyxmrsqirfippgdecgymgnrap") re.allchar (str.to_re "rzmdldowpzsqgtrdmprzt") (re.* re.allchar) (str.to_re "eqjzobnejxghwqrmwbavufxrdsthxirdgezthbheebdaqpet") (re.* re.allchar) (str.to_re "yqgi") (re.* re.allchar) (str.to_re "cxnoqjbcbkyotyko") re.allchar (str.to_re "dj") re.allchar (str.to_re "fvlgjdixly") re.allchar (str.to_re "gcwsa") (re.* re.allchar) (str.to_re "klkjpkxjdqq") (re.* re.allchar) (str.to_re "yzgk") re.allchar (str.to_re "q") re.allchar (str.to_re "wvfvlgxrring") (re.* re.allchar) (str.to_re "snlbtdsvscxtbrfy") re.allchar (str.to_re "cbxnbolmf") re.allchar (str.to_re "dcralttiscaglosrk") re.allchar (str.to_re "yxcjxnunosiwuvihrbq") re.allchar (str.to_re "heazsoimcgqsm") (re.* re.allchar) (str.to_re "kqofh") (re.* re.allchar) (str.to_re "d") re.allchar (str.to_re "zzqhswennmagyxnnfsakhtvfygido") (re.* re.allchar) (str.to_re "hlblnpdqkfggqzbvekhovsmpapcpieejsuvvvwlsan") (re.* re.allchar) (str.to_re "czypdztdarxsbdbxjba") (re.* re.allchar) (str.to_re "azblfwdamgpdefmxlqjbmyjyqvg") re.allchar (str.to_re "tnzgvakvblpss") re.allchar (str.to_re "wfhkdqrw") (re.* re.allchar) (str.to_re "rxtjmzjgtmwlnz") (re.* re.allchar) (str.to_re "vxiortktnvil") re.allchar (str.to_re "buselq") re.allchar (str.to_re "djnowqiywdoevbaagzsbcfv") (re.* re.allchar) (str.to_re "edlhqrhsyccn") (re.* re.allchar) (str.to_re "dzbwjf") re.allchar (str.to_re "idrgpmuwykau") re.allchar (str.to_re "fvnhbqu") re.allchar (str.to_re "p") re.allchar (str.to_re "o") re.allchar (str.to_re "iunalsk") (re.* re.allchar) (str.to_re "mfrviwtf") (re.* re.allchar) (str.to_re "dqp") (re.* re.allchar) (re.* re.allchar) (str.to_re "daqkvutape") (re.* re.allchar) (str.to_re "y") re.allchar (str.to_re "xhmkcqiislphdmwosyrmboaiuccsubaqpn") (re.* re.allchar) (str.to_re "lfnsu") (re.* re.allchar) (str.to_re "zvbfzugtpeuwepwiywan") (re.* re.allchar) (str.to_re "gkpmqyxowmxiciofxf") (re.* re.allchar) (str.to_re "bgi") (re.* re.allchar) (str.to_re "gxl") (re.* re.allchar) (str.to_re "canhhfwzwxum") re.allchar (str.to_re "hhrydfztcgcibjuebzz") re.allchar (str.to_re "iqselcgjxejxcjtmirvuvdn") (re.* re.allchar) (str.to_re "tvlfrpwntkxwpytdcgfwonqlucluopjgch") (re.* re.allchar) (str.to_re "xqvfvoxcbbnr") (re.* re.allchar) (str.to_re "ejagjnxufmqrz") re.allchar (str.to_re "udnicbmdxsvguvato") re.allchar (str.to_re "r") re.allchar (str.to_re "yl") (re.* re.allchar) (str.to_re "ecfxykxgkwcfle") (re.* re.allchar) (str.to_re "kwfewbirbfvh") (re.* re.allchar) (str.to_re "grjprx") (re.* re.allchar) (str.to_re "zjqbaaoelwhie") re.allchar (str.to_re "bxds") re.allchar (str.to_re "ikb") (re.* re.allchar) (str.to_re "iewcjrxjahz") (re.* re.allchar) (str.to_re "zfodxwpslpgebcrooshi") (re.* re.allchar) (str.to_re "vhqdzmwgakhlbzkeeyddgcyis") re.allchar (str.to_re "ddihrycnxiwrnfoecexzgdmfxbbhb") re.allchar (str.to_re "zwbx") (re.* re.allchar) re.allchar (str.to_re "iepuvgrnvktjopujlnqejuoofxihgpcvmtkt") re.allchar (str.to_re "sxhnoddjmzh") (re.* re.allchar) (str.to_re "n") re.allchar (str.to_re "lttqhxypejocdzyrkkbfnonhd") re.allchar (str.to_re "nfkqoxtvwyxjdfxgzuxlljicmlbeqrayxsywehz") (re.* re.allchar) (str.to_re "luvssudgkmt") (re.* re.allchar) (str.to_re "gpkp") (re.* re.allchar) re.allchar (str.to_re "qrv") re.allchar (str.to_re "nwkppuqvkqop") (re.* re.allchar) (str.to_re "bqxccsomebrpjyuhnfezgjwceyeumtradgmlllfkmbxnhxozrayxwndji") re.allchar (str.to_re "oqbbeztdq") re.allchar (str.to_re "uxibei") re.allchar (str.to_re "vvbxbhofvhcpoccijefebypue") re.allchar (str.to_re "jwsefpmne") (re.* re.allchar) (str.to_re "uecdfuz") (re.* re.allchar) (str.to_re "oared") (re.* re.allchar) (str.to_re "ijohjb") re.allchar (str.to_re "vquzqsousrrbomokunvd") re.allchar (str.to_re "yxyrkbbgxokzghlyqjlcyltbbvtkx") re.allchar (str.to_re "rxosffwsdxujkgtrdsmdnsljplgd") (re.* re.allchar) (str.to_re "jfjnw") (re.* re.allchar) (str.to_re "frbtzxnzgzodfznztvrrherroiukjilqajpaqegohontlydtvhjcx") (re.* re.allchar) (str.to_re "gzodynsxxtryd") (re.* re.allchar) (str.to_re "qsvwddzmqqbkc") (re.* re.allchar) (str.to_re "r") (re.* re.allchar) (str.to_re "sx") (re.* re.allchar) (str.to_re "jb") (re.* re.allchar) (str.to_re "uurdfmge") re.allchar (str.to_re "ma") (re.* re.allchar) (str.to_re "xtndjecshrzecgggusimlrzlwuxgg") (re.* re.allchar) (str.to_re "nxwyuqyrnupnithxwppjmsd") (re.* re.allchar) (str.to_re "b") re.allchar (str.to_re "vo") re.allchar (str.to_re "qfvoisgsuumgiwgbgpdqhbmbyishpbspgcszkvo") (re.* re.allchar) (str.to_re "jussihk") (re.* re.allchar) (str.to_re "bag") re.allchar (str.to_re "mpwbhweq") (re.* re.allchar) (str.to_re "ujnnhgyptqzyihcv") (re.* re.allchar) (str.to_re "titkxdgbjaenlphwtenrkjbyymwenfcspywoji") re.allchar (str.to_re "gxmhebprhwetkrnl") re.allchar (str.to_re "moyaxeydis") (re.* re.allchar) (str.to_re "aiyzh") (re.* re.allchar) (str.to_re "nxbufaukd") (re.* re.allchar) (str.to_re "b") re.allchar (str.to_re "mwaepsfenfdv") (re.* re.allchar) (str.to_re "qyfjvzvipgnqntnb") (re.* re.allchar) (str.to_re "eka") re.allchar (re.* re.allchar) (str.to_re "utlwaxajitnqkfolrjuugsfqptkkxjvag") (re.* re.allchar) (str.to_re "onvguxiklnzrlyhqo") re.allchar (str.to_re "vkkw") re.allchar (str.to_re "pifogqdyarkbqyjbcjysjqkbgslwm") (re.* re.allchar) (str.to_re "omotjjliddtfokpxwtrz") re.allchar (str.to_re "kam") (re.* re.allchar) (str.to_re "gld") (re.* re.allchar) (str.to_re "u") re.allchar (str.to_re "oqp") (re.* re.allchar) (str.to_re "rzynzqycazfzobol") re.allchar (str.to_re "vtc") (re.* re.allchar) (str.to_re "tbxpuisri") re.allchar (str.to_re "awrxohyzrjh") (re.* re.allchar) (re.* re.allchar) (str.to_re "qrchdhiv") re.allchar (str.to_re "lczcudqddkoehjuaoibhcytpucvk") re.allchar (str.to_re "d") (re.* re.allchar) (str.to_re "zflffnimsqmpmcwbeybtjukndacdslaursolndnuqabkdiu") re.allchar (str.to_re "qcqftegnoptqksgjzb") (re.* re.allchar) (str.to_re "zpswftvlafzuhjwtvopbarco") (re.* re.allchar) (str.to_re "qsohskmfgkjvvzfcjn") (re.* re.allchar) (str.to_re "gdodqrtmfx") (re.* re.allchar) (str.to_re "kzuyrtwhnwlnx") (re.* re.allchar) (str.to_re "moufnwddiropwaxbhfd") (re.* re.allchar) (str.to_re "rkfw") (re.* re.allchar) (str.to_re "xwjfilfdqkqr") re.allchar (str.to_re "ouqb") (re.* re.allchar) (str.to_re "tputysmszajuhwnnlvfsjoefgpbykyhiksinwaxmfjl") (re.* re.allchar) (str.to_re "i") (re.* re.allchar) (str.to_re "zmuiozmxv") re.allchar (str.to_re "o") (re.* re.allchar) re.allchar (str.to_re "mprdaiftgbgnvlex") re.allchar (str.to_re "q") re.allchar (str.to_re "lvzgtsgwstvyermcevctmazpwb") (re.* re.allchar) (re.* re.allchar) (str.to_re "etwjmsfiypgcdfyvkkkswwjrwphdupbjsmagsxsizwkillaqouhyzj") (re.* re.allchar) (str.to_re "ucaowfgwbx") (re.* re.allchar) (str.to_re "npmgcsabmcbgtokrrpclzhzobeqsz") (re.* re.allchar) (re.* re.allchar) (str.to_re "xftpaa") (re.* re.allchar) (str.to_re "vwnns") re.allchar (str.to_re "kgpsdowhiyeudu") (re.* re.allchar) (str.to_re "ufwf") (re.* re.allchar) (str.to_re "avgwzgmgenfryhagx") (re.* re.allchar) (str.to_re "gnpbewskoxvhvumozkbss") re.allchar (re.* re.allchar) (str.to_re "bazbfzlwixbuplhrtsjzbrsvawrtjqhkoyseiriyne") re.allchar (str.to_re "npsjfdasttwdnthh") re.allchar (str.to_re "kmj") re.allchar (str.to_re "giizjfcxfwspzboqagbqjfkqveuxxfzky") (re.* re.allchar) (str.to_re "m") re.allchar (str.to_re "sjfomtfvbneevcwaxdftgfnhdzxedkedydtnr") re.allchar (str.to_re "shuvo") (re.* re.allchar) (re.* re.allchar) (str.to_re "mvbeclmjfprcpwoinh") re.allchar (str.to_re "mfw") re.allchar (str.to_re "xrrxirftmgnzdggrnjj") (re.* re.allchar) (str.to_re "wy") (re.* re.allchar) (str.to_re "nfmpzifybrvrim") re.allchar (str.to_re "psppqxnkdlnvxguw") re.allchar (str.to_re "la") (re.* re.allchar) (str.to_re "nigbioj") (re.* re.allchar) (str.to_re "yoiqluzrvvxkkfymjvfwt") re.allchar (str.to_re "rafrixgyygfjfdgkbiclgbbvqoiohdeqcsdwlkomyoflfocds") (re.* re.allchar) (str.to_re "qfkepngfwtxafloakteby") (re.* re.allchar) (str.to_re "iqnjgez") re.allchar (str.to_re "cjnzucexouamsxd") re.allchar (str.to_re "pkzlthtxx") (re.* re.allchar) (str.to_re "hsrezycyhsyvcgbiukgiailztdmuuqcyphsapwj") re.allchar (str.to_re "tweyafquyok") re.allchar (str.to_re "a") re.allchar (str.to_re "rtyxq") (re.* re.allchar) (str.to_re "vbibqtuqi") re.allchar (str.to_re "mhsfekbmuqgisyewveuo") re.allchar (str.to_re "zijabivkcmfchvj") re.allchar (str.to_re "kk") (re.* re.allchar) (str.to_re "riwiaknto") (re.* re.allchar) (str.to_re "gtgbzothudouahgfxwijtjghmsinllgebgbmmpzjmeyvpenkudrzwiewqofikkfcbutzajnlvtdjuj") (re.* re.allchar) (str.to_re "gafjr") (re.* re.allchar) (str.to_re "fjlepkjb") (re.* re.allchar) (str.to_re "jmiozqubfeiwzjjefzpskfvkucezkt") re.allchar (str.to_re "ori") re.allchar (str.to_re "p") re.allchar (str.to_re "beu") (re.* re.allchar) (str.to_re "tdesginvbar") (re.* re.allchar) (str.to_re "qgmpselodzrbnlothognwlw") (re.* re.allchar) (str.to_re "ipnvrwcfsxbcxmiwyhplatojvfbgldubhzqbnxxweramhfvodj") (re.* re.allchar) (str.to_re "vcpwfr") re.allchar (str.to_re "buajypkpxjyyuphd") re.allchar (str.to_re "mdrxa") re.allchar (str.to_re "chtkir") (re.* re.allchar) (str.to_re "vgqva") re.allchar (str.to_re "uasj") (re.* re.allchar) (re.* re.allchar) (str.to_re "hji") (re.* re.allchar) (str.to_re "m") (re.* re.allchar) (str.to_re "pfgreitzvoofdsummqcqvcyqkkupidoycdqqocjivakbllvapraxiwcvgnesyksstuyavlgvouhynzwmzqgmajubjanbdbtmciwrtzoesekggenygvnpu") re.allchar (str.to_re "otx") (re.* re.allchar) (str.to_re "uxarfoqahpp") re.allchar (str.to_re "tbxtijftawnk") re.allchar (str.to_re "j") re.allchar (str.to_re "mxpro") re.allchar (str.to_re "njgomtbdujg") (re.* re.allchar) (str.to_re "j") (re.* re.allchar) (str.to_re "tnec") re.allchar (str.to_re "fpa") re.allchar (str.to_re "nsn") re.allchar (str.to_re "evxvdkckwhwamdagqalsgmdlbzauatrsypp") re.allchar (str.to_re "iep") (re.* re.allchar) (str.to_re "ydscxmvcjttlebvljwtexloeavwjnhcpdzdeetqpggozrovtxdugzizqox") (re.* re.allchar) (str.to_re "qieknlyzorrjwpi") (re.* re.allchar) (str.to_re "muancqnhjewqrfkqbmmryqbburghythmccjvmjhwyrim") (re.* re.allchar) (str.to_re "xpnmtgz") re.allchar (str.to_re "bbrspqrpenshuffmdqdbcbbaldynreeghpiedbkijkynqxeifnwweoxiyxfjf") (re.* re.allchar) (str.to_re "apdjfhl") (re.* re.allchar) (str.to_re "gnelm") re.allchar (str.to_re "idmk") (re.* re.allchar) (str.to_re "f") re.allchar (str.to_re "vlefbpbkygj") re.allchar (str.to_re "kovuji") re.allchar (str.to_re "nirubv") (re.* re.allchar) (str.to_re "wnlk") )   (re.++ (str.to_re "nkcklmpzdate") re.allchar (str.to_re "fbycojxxgcbqqkavcoqmnlmovj") (re.* re.allchar) (str.to_re "yhpsimphhfrafhxtuzwumvafbq") (re.* re.allchar) (str.to_re "stbvmzkkvpd") re.allchar (str.to_re "pxtowptcdz") re.allchar (str.to_re "xjiqty") re.allchar (str.to_re "fudei") (re.* re.allchar) (str.to_re "oifbbuz") re.allchar re.allchar (str.to_re "r") re.allchar (str.to_re "n") (re.* re.allchar) (str.to_re "ngbenrrgsxvatnayxvypkblwzqcborobpjdemxjppczhoipyjzxxhvs") re.allchar (str.to_re "udjlpn") re.allchar (str.to_re "suoupkudsajsuzvbkkmfjlsm") (re.* re.allchar) (str.to_re "hiyjdt") (re.* re.allchar) (str.to_re "ahefkjkvny") (re.* re.allchar) (str.to_re "sunvdzwmtyiffleyagpudfblsekjrroammak") re.allchar (str.to_re "pcxex") (re.* re.allchar) re.allchar (str.to_re "kubhernoxryxhfsjzybhbyxgcjcilytweovdsnuyjwd") re.allchar (str.to_re "iyzbsjlnxwfoogbixjdnzhqiqxqhfpygvet") re.allchar (str.to_re "phtp") re.allchar (str.to_re "c") re.allchar (str.to_re "gepqxkrmq") (re.* re.allchar) (str.to_re "dugvjctrapar") re.allchar (str.to_re "ykzdyzhnvgk") (re.* re.allchar) (str.to_re "zaaahivthzbzvmcuz") re.allchar (str.to_re "fqogvxwedhaugh") re.allchar (str.to_re "uijcbcsz") re.allchar (str.to_re "gkog") re.allchar (str.to_re "q") (re.* re.allchar) (str.to_re "sqyywrtfmlhzritrqury") re.allchar (str.to_re "hegudluktus") re.allchar (str.to_re "jkenoneaclbxdosrtvifdaiqezjdy") re.allchar re.allchar (str.to_re "gbukydluzvzxvvyclkb") re.allchar (str.to_re "g") re.allchar (str.to_re "svgbsmx") re.allchar (str.to_re "ruuvsmvwgyixhpzxwwpkehjpwtlql") re.allchar (str.to_re "cndkdlhjnva") (re.* re.allchar) (str.to_re "zgbpjmex") (re.* re.allchar) (str.to_re "u") (re.* re.allchar) (str.to_re "yejijecgh") re.allchar (str.to_re "qeuaow") (re.* re.allchar) re.allchar (str.to_re "wrimpq") (re.* re.allchar) (str.to_re "ymlliyvqluh") (re.* re.allchar) (str.to_re "chignkmlqwfbsfclftqyhmc") re.allchar (re.* re.allchar) (str.to_re "bad") (re.* re.allchar) (str.to_re "kl") (re.* re.allchar) (str.to_re "posdwpooicid") re.allchar (str.to_re "enhqeniiruzuvgtjjxnuewzouhzpitavpvgbtwokfjaqyxwy") (re.* re.allchar) (str.to_re "xwvgsqonfdspxorqsn") re.allchar (str.to_re "dahf") (re.* re.allchar) (str.to_re "n") re.allchar (str.to_re "fltkmmwttmhzzshgty") re.allchar (str.to_re "fxije") re.allchar (str.to_re "xvulqrgym") re.allchar (str.to_re "nkah") (re.* re.allchar) (str.to_re "pgnxanisttyz") re.allchar (str.to_re "p") (re.* re.allchar) (str.to_re "etsvmxycbhrnyp") (re.* re.allchar) (str.to_re "hpzeqraeszjpzkduw") (re.* re.allchar) (str.to_re "jkgssofzbbxprnvdiuhcu") (re.* re.allchar) (str.to_re "qugxt") re.allchar (str.to_re "badzqjp") (re.* re.allchar) (str.to_re "v") re.allchar re.allchar (str.to_re "vgz") re.allchar (str.to_re "lwzcffr") re.allchar (str.to_re "cilktpj") (re.* re.allchar) (str.to_re "tkjsjrvrg") re.allchar (str.to_re "endlxu") re.allchar (str.to_re "bnapeo") re.allchar (re.* re.allchar) (str.to_re "tfsvkjoygpt") re.allchar (re.* re.allchar) (str.to_re "cbismwjrwblcqkgg") (re.* re.allchar) (str.to_re "xzkrdpu") (re.* re.allchar) (str.to_re "gyjjxwpzbj") (re.* re.allchar) (str.to_re "khickxzmpiwmgqzjskbitoeiuzuio") (re.* re.allchar) (str.to_re "bmalfjivmfhdfyslonpoyaxohtdphtmokjp") (re.* re.allchar) (str.to_re "lzqmmhd") (re.* re.allchar) (str.to_re "egtyrqfifaoo") re.allchar (str.to_re "kjymt") (re.* re.allchar) (str.to_re "hztvia") (re.* re.allchar) (str.to_re "utiynm") re.allchar (str.to_re "casguetcwupwx") re.allchar (str.to_re "ycxzihul") re.allchar (str.to_re "mnvofjiamnwrtvalistjebdsfkyxzslky") re.allchar (str.to_re "waslesxiiuenqeoinwwshlcpzgkhzcwjgpdgherwdyevreqbghdfr") (re.* re.allchar) (str.to_re "bgkovl") re.allchar (str.to_re "sarvxtutlguxpahkqamsdrll") (re.* re.allchar) (str.to_re "vnckv") re.allchar (str.to_re "vrisuygjrmnairqofizciqpfiqhj") re.allchar (re.* re.allchar) (str.to_re "nmr") re.allchar (str.to_re "jchxtuekjp") (re.* re.allchar) (str.to_re "ghnwflnnhcoydimufvmtkfrlhftjknoqufvtlzljpmczbpm") re.allchar (str.to_re "jzuzngpidnqgyjqmcqffiwlpfuetsjqumtdimoudpi") re.allchar (str.to_re "qhzjzsrrbcuwpndpiqskz") re.allchar (str.to_re "okotuedrwqrdewkkzkns") re.allchar re.allchar (str.to_re "tapb") re.allchar (str.to_re "modrqhfpncxpufaoxsgczfitwevmiuaurgkivazgoekzqrxevgzwfduyxkjnjjfuotz") re.allchar (str.to_re "bjvknrfhz") (re.* re.allchar) (str.to_re "vfmypex") (re.* re.allchar) (str.to_re "fvegnlnvgtffkdjpdn") re.allchar re.allchar (str.to_re "eia") re.allchar (str.to_re "cypqmebx") re.allchar (str.to_re "bpoqeehhrkbezvqptpnfuefhvioylhbvzzh") (re.* re.allchar) (str.to_re "bjqdkemydhsggk") (re.* re.allchar) (str.to_re "qijravnnsenfv") (re.* re.allchar) (str.to_re "ntekscdzjilgj") re.allchar (str.to_re "ndspezpznswugbqkxbv") re.allchar (str.to_re "lwjdkzqhk") re.allchar (str.to_re "ouilxrdnmzwiu") re.allchar (str.to_re "mbzuxdnmqf") (re.* re.allchar) (str.to_re "luigcuk") (re.* re.allchar) (str.to_re "cmibfzqppihtoy") re.allchar (str.to_re "mekt") re.allchar (str.to_re "ekyxettjvfnlnuuwmzdzmkgobdilvhurcqwhxw") (re.* re.allchar) (str.to_re "vwm") re.allchar (str.to_re "zyihmzzfnieedalr") re.allchar (str.to_re "pw") re.allchar (str.to_re "ogwprioyzstnjqubd") re.allchar (str.to_re "m") re.allchar (str.to_re "svllbpznuiubcdz") (re.* re.allchar) (str.to_re "cioihwovaowhbofhcprncntudf") re.allchar (str.to_re "amfopr") (re.* re.allchar) (str.to_re "hlbzcwgoaad") (re.* re.allchar) (str.to_re "qklfitcvejmwwkupajskgd") re.allchar (str.to_re "infqugkauuoldifouihhocitgfindqypvlgefb") (re.* re.allchar) (str.to_re "ybairhxwje") (re.* re.allchar) (str.to_re "sj") re.allchar (str.to_re "kdabmlvqprzskrjcii") re.allchar (str.to_re "mxihhd") (re.* re.allchar) (str.to_re "mcehd") re.allchar (str.to_re "eakrdtqzfookhehmh") re.allchar (str.to_re "rnpwmwjotemhpemavy") re.allchar (str.to_re "iauxymlekk") re.allchar (str.to_re "ofukgcdcvwkflwairsgcmizatyivumkwfmdbjm") re.allchar (str.to_re "ouexmnfpudoqzuxjardgvgylcyeq") re.allchar (str.to_re "mg") re.allchar (str.to_re "feh") re.allchar (str.to_re "wbpjmg") re.allchar (str.to_re "ndgcphtmkoxurb") (re.* re.allchar) (str.to_re "rydmxpvjh") (re.* re.allchar) (str.to_re "jfyskkscq") re.allchar (str.to_re "wg") (re.* re.allchar) (str.to_re "wuwtfpakkdovkdldbsrbg") (re.* re.allchar) (str.to_re "piduygbsw") (re.* re.allchar) (re.* re.allchar) (str.to_re "nijrsipixf") (re.* re.allchar) (str.to_re "yqhbrmovcqjedquygzrpqiqzplooeqlrcxutij") (re.* re.allchar) (str.to_re "mgcxlijwaa") (re.* re.allchar) (str.to_re "ulvx") re.allchar (str.to_re "ojdvymfguwbrvjow") (re.* re.allchar) (str.to_re "htcyewqkcdiwshxobmoxwivtkwj") (re.* re.allchar) (str.to_re "wxwy") re.allchar (str.to_re "rmdebukalfzxih") re.allchar (str.to_re "phkmoaegrpsyxqoykwzlmrywg") re.allchar (str.to_re "ulnjj") (re.* re.allchar) (str.to_re "xrdtmrujfqviul") (re.* re.allchar) (str.to_re "grvw") re.allchar (str.to_re "whhvdnlehh") (re.* re.allchar) (str.to_re "i") re.allchar (str.to_re "zddj") re.allchar (re.* re.allchar) (str.to_re "sv") (re.* re.allchar) (str.to_re "ktxxmpozhrpympzghywcpsrokfmzjoxqfnhxlsmdkovz") re.allchar (str.to_re "kkbuelacsxzbvvskyqtwfuhmdbtrhi") (re.* re.allchar) (str.to_re "zbzz") (re.* re.allchar) (str.to_re "jrtspn") re.allchar (re.* re.allchar) (re.* re.allchar) (str.to_re "nrlqnl") (re.* re.allchar) (str.to_re "jcbf") (re.* re.allchar) (str.to_re "tcwrbzgtmozmpqcqykercbfsnrsvkybghbgmgxhhopsnxxyljdvbaxuycycevry") re.allchar (str.to_re "hk") (re.* re.allchar) (str.to_re "x") (re.* re.allchar) (str.to_re "yscqmbfyxaebtejjhdadbvygbvyppdk") (re.* re.allchar) (str.to_re "emnujwmpnzquomtgtgwludkot") re.allchar (str.to_re "zhkhlbmxfkhmklckezqltzvttoraiar") (re.* re.allchar) (str.to_re "ifqsixffhjagpmhbtpbrrtacbvagbuo") re.allchar (str.to_re "eyvgxfdsqyzbgslsr") re.allchar (str.to_re "owwnkytjkw") re.allchar (str.to_re "fkhmwmew") re.allchar (str.to_re "i") (re.* re.allchar) (str.to_re "jxlzakxxwnjofifzgwktb") (re.* re.allchar) (str.to_re "grxghqaqgletntk") (re.* re.allchar) (str.to_re "ysmzyjbrzmydqizuckd") (re.* re.allchar) (str.to_re "zlgrhfihxfqmemuijpmigqlt") re.allchar (str.to_re "amjdl") re.allchar (str.to_re "glzylugudlkrsyw") (re.* re.allchar) (str.to_re "mb") re.allchar (str.to_re "bloyhmpcly") re.allchar (str.to_re "uoefeekcpqwl") re.allchar (str.to_re "cgifcepz") (re.* re.allchar) (str.to_re "axunbultonwhepmccnpajxzvw") re.allchar (str.to_re "afeud") re.allchar (str.to_re "vya") (re.* re.allchar) (str.to_re "kytxacxwcojvxjfndoonqpyezy") re.allchar (str.to_re "vjcftjr") (re.* re.allchar) (str.to_re "rvnbteyqez") (re.* re.allchar) (str.to_re "vnuhvxjp") re.allchar (re.* re.allchar) (str.to_re "fwdxnlxue") re.allchar (str.to_re "pefwrhmrlzlcrrssaqcqqmgvroiagerxfcgvwsrnzmpjvttvxbhepgiqwyxkp") (re.* re.allchar) )  )))
(check-sat)
(exit)
